
Gurobi 6.5.2 (linux64) logging started Tue Sep 20 21:22:57 2016


Gurobi 6.5.2 (linux64) logging started Tue Sep 20 21:22:57 2016

Optimize a model with 201 rows, 2575 columns and 6155 nonzeros
Coefficient statistics:
  Matrix range    [1e+00, 2e+00]
  Objective range [1e+00, 1e+02]
  Bounds range    [1e+00, 1e+00]
  RHS range       [1e+00, 1e+00]
Presolve removed 55 rows and 1 columns
Presolve time: 0.01s
Presolved: 146 rows, 2574 columns, 5545 nonzeros
Variable types: 0 continuous, 2574 integer (2574 binary)

Root relaxation: objective 3.951667e+02, 108 iterations, 0.00 seconds

    Nodes    |    Current Node    |     Objective Bounds      |     Work
 Expl Unexpl |  Obj  Depth IntInf | Incumbent    BestBd   Gap | It/Node Time

     0     0  395.16667    0   36          -  395.16667      -     -    0s
     0     0  433.63333    0   52          -  433.63333      -     -    0s
     0     0  434.63333    0   46          -  434.63333      -     -    0s
     0     0  441.50000    0   66          -  441.50000      -     -    0s
     0     0  446.05652    0   71          -  446.05652      -     -    0s
     0     0  449.37929    0   84          -  449.37929      -     -    0s
     0     0  452.16732    0  100          -  452.16732      -     -    0s
     0     0  455.77273    0   74          -  455.77273      -     -    0s
     0     0  455.91071    0   75          -  455.91071      -     -    0s
     0     0  457.76190    0   94          -  457.76190      -     -    0s
     0     0  457.76190    0   94          -  457.76190      -     -    0s
     0     2  457.76190    0   92          -  457.76190      -     -    0s
  1096   980  532.50000   39  133          -  497.16415      -   4.4    5s

Cutting planes:
  Gomory: 38
  Cover: 125
  MIR: 2
  Flow cover: 11
  Zero half: 37
  Lazy constraints: 72

Explored 1107 nodes (6175 simplex iterations) in 10.24 seconds
Thread count was 8 (of 8 available processors)

Time limit reached
Best objective -, best bound 5.020000000000e+02, gap -
